sat
(:max-memory          18.21
 :memory              17.97
 :nlsat-conflicts     2
 :nlsat-learned-added 2
 :nlsat-propagations  17
 :nlsat-stages        6
 :num-allocs          7536
 :rlimit-count        5653
 :time                0.00
 :total-time          0.02)
